Li20 Ge2 P4 S24
1.0
       17.1799011230         0.0000000000         0.0000000000
       -0.0772093229        17.7589130485         0.0000000000
       -0.2910353661        -0.8997439501        25.9326886224
   Li   Ge    P    S
  160   16   32  192
Direct
     0.107980497         0.408939004         0.376776487
     0.107980497         0.408939004         0.876776457
     0.107980497         0.908939004         0.376776487
     0.107980497         0.908939004         0.876776457
     0.607980490         0.408939004         0.376776487
     0.607980490         0.408939004         0.876776457
     0.607980490         0.908939004         0.376776487
     0.607980490         0.908939004         0.876776457
     0.110748000         0.129417494         0.459713995
     0.110748000         0.129417494         0.959713995
     0.110748000         0.629417479         0.459713995
     0.110748000         0.629417479         0.959713995
     0.610747993         0.129417494         0.459713995
     0.610747993         0.129417494         0.959713995
     0.610747993         0.629417479         0.459713995
     0.610747993         0.629417479         0.959713995
     0.114818498         0.378495991         0.125964001
     0.114818498         0.378495991         0.625963986
     0.114818498         0.878495991         0.125964001
     0.114818498         0.878495991         0.625963986
     0.614818513         0.378495991         0.125964001
     0.614818513         0.378495991         0.625963986
     0.614818513         0.878495991         0.125964001
     0.614818513         0.878495991         0.625963986
     0.114823997         0.114067003         0.183035001
     0.114823997         0.114067003         0.683035016
     0.114823997         0.614067018         0.183035001
     0.114823997         0.614067018         0.683035016
     0.614823997         0.114067003         0.183035001
     0.614823997         0.114067003         0.683035016
     0.614823997         0.614067018         0.183035001
     0.614823997         0.614067018         0.683035016
     0.120595500         0.105902500         0.324840993
     0.120595500         0.105902500         0.824841022
     0.120595500         0.605902493         0.324840993
     0.120595500         0.605902493         0.824841022
     0.620595515         0.105902500         0.324840993
     0.620595515         0.105902500         0.824841022
     0.620595515         0.605902493         0.324840993
     0.620595515         0.605902493         0.824841022
     0.122097999         0.359827489         0.242467999
     0.122097999         0.359827489         0.742467999
     0.122097999         0.859827518         0.242467999
     0.122097999         0.859827518         0.742467999
     0.622097969         0.359827489         0.242467999
     0.622097969         0.359827489         0.742467999
     0.622097969         0.859827518         0.242467999
     0.622097969         0.859827518         0.742467999
     0.122527003         0.380564511         0.002894000
     0.122527003         0.380564511         0.502893984
     0.122527003         0.880564511         0.002894000
     0.122527003         0.880564511         0.502893984
     0.622527003         0.380564511         0.002894000
     0.622527003         0.380564511         0.502893984
     0.622527003         0.880564511         0.002894000
     0.622527003         0.880564511         0.502893984
     0.129906505         0.144656494         0.078790501
     0.129906505         0.144656494         0.578790486
     0.129906505         0.644656479         0.078790501
     0.129906505         0.644656479         0.578790486
     0.629906535         0.144656494         0.078790501
     0.629906535         0.144656494         0.578790486
     0.629906535         0.644656479         0.078790501
     0.629906535         0.644656479         0.578790486
     0.231023505         0.258040011         0.375387013
     0.231023505         0.258040011         0.875387013
     0.231023505         0.758040011         0.375387013
     0.231023505         0.758040011         0.875387013
     0.731023490         0.258040011         0.375387013
     0.731023490         0.258040011         0.875387013
     0.731023490         0.758040011         0.375387013
     0.731023490         0.758040011         0.875387013
     0.248181000         0.498160988         0.025325000
     0.248181000         0.498160988         0.525325000
     0.248181000         0.998160958         0.025325000
     0.248181000         0.998160958         0.525325000
     0.748180985         0.498160988         0.025325000
     0.748180985         0.498160988         0.525325000
     0.748180985         0.998160958         0.025325000
     0.748180985         0.998160958         0.525325000
     0.255279988         0.482420504         0.274475992
     0.255279988         0.482420504         0.774475992
     0.255279988         0.982420504         0.274475992
     0.255279988         0.982420504         0.774475992
     0.755280018         0.482420504         0.274475992
     0.755280018         0.482420504         0.774475992
     0.755280018         0.982420504         0.274475992
     0.755280018         0.982420504         0.774475992
     0.367123008         0.128187507         0.428633988
     0.367123008         0.128187507         0.928633988
     0.367123008         0.628187537         0.428633988
     0.367123008         0.628187537         0.928633988
     0.867123008         0.128187507         0.428633988
     0.867123008         0.128187507         0.928633988
     0.867123008         0.628187537         0.428633988
     0.867123008         0.628187537         0.928633988
     0.370700508         0.131428003         0.065701500
     0.370700508         0.131428003         0.565701485
     0.370700508         0.631428003         0.065701500
     0.370700508         0.631428003         0.565701485
     0.870700479         0.131428003         0.065701500
     0.870700479         0.131428003         0.565701485
     0.870700479         0.631428003         0.065701500
     0.870700479         0.631428003         0.565701485
     0.371890992         0.373553514         0.140978500
     0.371890992         0.373553514         0.640978515
     0.371890992         0.873553514         0.140978500
     0.371890992         0.873553514         0.640978515
     0.871891022         0.373553514         0.140978500
     0.871891022         0.373553514         0.640978515
     0.871891022         0.873553514         0.140978500
     0.871891022         0.873553514         0.640978515
     0.374062985         0.380554497         0.004201500
     0.374062985         0.380554497         0.504201472
     0.374062985         0.880554497         0.004201500
     0.374062985         0.880554497         0.504201472
     0.874063015         0.380554497         0.004201500
     0.874063015         0.380554497         0.504201472
     0.874063015         0.880554497         0.004201500
     0.874063015         0.880554497         0.504201472
     0.377029002         0.110052504         0.175762996
     0.377029002         0.110052504         0.675763011
     0.377029002         0.610052526         0.175762996
     0.377029002         0.610052526         0.675763011
     0.877029002         0.110052504         0.175762996
     0.877029002         0.110052504         0.675763011
     0.877029002         0.610052526         0.175762996
     0.877029002         0.610052526         0.675763011
     0.382084489         0.364129007         0.344727010
     0.382084489         0.364129007         0.844727039
     0.382084489         0.864129007         0.344727010
     0.382084489         0.864129007         0.844727039
     0.882084489         0.364129007         0.344727010
     0.882084489         0.364129007         0.844727039
     0.882084489         0.864129007         0.344727010
     0.882084489         0.864129007         0.844727039
     0.391705006         0.107294001         0.312732488
     0.391705006         0.107294001         0.812732458
     0.391705006         0.607294023         0.312732488
     0.391705006         0.607294023         0.812732458
     0.891705036         0.107294001         0.312732488
     0.891705036         0.107294001         0.812732458
     0.891705036         0.607294023         0.312732488
     0.891705036         0.607294023         0.812732458
     0.482246995         0.258560985         0.213161498
     0.482246995         0.258560985         0.713161469
     0.482246995         0.758561015         0.213161498
     0.482246995         0.758561015         0.713161469
     0.982246995         0.258560985         0.213161498
     0.982246995         0.258560985         0.713161469
     0.982246995         0.758561015         0.213161498
     0.982246995         0.758561015         0.713161469
     0.494365513         0.258545488         0.475868493
     0.494365513         0.258545488         0.975868464
     0.494365513         0.758545518         0.475868493
     0.494365513         0.758545518         0.975868464
     0.994365513         0.258545488         0.475868493
     0.994365513         0.258545488         0.975868464
     0.994365513         0.758545518         0.475868493
     0.994365513         0.758545518         0.975868464
     0.254420012         0.495375007         0.407810003
     0.254420012         0.495375007         0.907809973
     0.254420012         0.995375037         0.407810003
     0.254420012         0.995375037         0.907809973
     0.754420042         0.495375007         0.407810003
     0.754420042         0.495375007         0.907809973
     0.754420042         0.995375037         0.407810003
     0.754420042         0.995375037         0.907809973
     0.498433501         0.243986502         0.091555499
     0.498433501         0.243986502         0.591555476
     0.498433501         0.743986487         0.091555499
     0.498433501         0.743986487         0.591555476
     0.998433471         0.243986502         0.091555499
     0.998433471         0.243986502         0.591555476
     0.998433471         0.743986487         0.091555499
     0.998433471         0.743986487         0.591555476
     0.004179500         0.241587996         0.342218012
     0.004179500         0.241587996         0.842218041
     0.004179500         0.741587996         0.342218012
     0.004179500         0.741587996         0.842218041
     0.504179478         0.241587996         0.342218012
     0.504179478         0.241587996         0.842218041
     0.504179478         0.741587996         0.342218012
     0.504179478         0.741587996         0.842218041
     0.243907496         0.004590500         0.155250505
     0.243907496         0.004590500         0.655250490
     0.243907496         0.504590511         0.155250505
     0.243907496         0.504590511         0.655250490
     0.743907511         0.004590500         0.155250505
     0.743907511         0.004590500         0.655250490
     0.743907511         0.504590511         0.155250505
     0.743907511         0.504590511         0.655250490
     0.246199995         0.257815003         0.496542007
     0.246199995         0.257815003         0.996541977
     0.246199995         0.757815003         0.496542007
     0.246199995         0.757815003         0.996541977
     0.746199965         0.257815003         0.496542007
     0.746199965         0.257815003         0.996541977
     0.746199965         0.757815003         0.496542007
     0.746199965         0.757815003         0.996541977
     0.496319503         0.482506990         0.250921994
     0.496319503         0.482506990         0.750921965
     0.496319503         0.982506990         0.250921994
     0.496319503         0.982506990         0.750921965
     0.996319532         0.482506990         0.250921994
     0.996319532         0.482506990         0.750921965
     0.996319532         0.982506990         0.250921994
     0.996319532         0.982506990         0.750921965
     0.000383000         0.354616493         0.051917002
     0.000383000         0.354616493         0.551917017
     0.000383000         0.854616523         0.051917002
     0.000383000         0.854616523         0.551917017
     0.500383019         0.354616493         0.051917002
     0.500383019         0.354616493         0.551917017
     0.500383019         0.854616523         0.051917002
     0.500383019         0.854616523         0.551917017
     0.001542500         0.140752003         0.380237013
     0.001542500         0.140752003         0.880236983
     0.001542500         0.640752017         0.380237013
     0.001542500         0.640752017         0.880236983
     0.501542509         0.140752003         0.380237013
     0.501542509         0.140752003         0.880236983
     0.501542509         0.640752017         0.380237013
     0.501542509         0.640752017         0.880236983
     0.002301000         0.396965504         0.194827497
     0.002301000         0.396965504         0.694827497
     0.002301000         0.896965504         0.194827497
     0.002301000         0.896965504         0.694827497
     0.502300978         0.396965504         0.194827497
     0.502300978         0.396965504         0.694827497
     0.502300978         0.896965504         0.194827497
     0.502300978         0.896965504         0.694827497
     0.003443000         0.147842497         0.032726500
     0.003443000         0.147842497         0.532726526
     0.003443000         0.647842526         0.032726500
     0.003443000         0.647842526         0.532726526
     0.503443003         0.147842497         0.032726500
     0.503443003         0.147842497         0.532726526
     0.503443003         0.647842526         0.032726500
     0.503443003         0.647842526         0.532726526
     0.097889498         0.473823011         0.294172496
     0.097889498         0.473823011         0.794172525
     0.097889498         0.973823011         0.294172496
     0.097889498         0.973823011         0.794172525
     0.597889483         0.473823011         0.294172496
     0.597889483         0.473823011         0.794172525
     0.597889483         0.973823011         0.294172496
     0.597889483         0.973823011         0.794172525
     0.100594498         0.239292502         0.145791501
     0.100594498         0.239292502         0.645791531
     0.100594498         0.739292502         0.145791501
     0.100594498         0.739292502         0.645791531
     0.600594521         0.239292502         0.145791501
     0.600594521         0.239292502         0.645791531
     0.600594521         0.739292502         0.145791501
     0.600594521         0.739292502         0.645791531
     0.106181003         0.243149996         0.300519496
     0.106181003         0.243149996         0.800519466
     0.106181003         0.743149996         0.300519496
     0.106181003         0.743149996         0.800519466
     0.606181026         0.243149996         0.300519496
     0.606181026         0.243149996         0.800519466
     0.606181026         0.743149996         0.300519496
     0.606181026         0.743149996         0.800519466
     0.142444506         0.494536996         0.452731490
     0.142444506         0.494536996         0.952731490
     0.142444506         0.994536996         0.452731490
     0.142444506         0.994536996         0.952731490
     0.642444491         0.494536996         0.452731490
     0.642444491         0.494536996         0.952731490
     0.642444491         0.994536996         0.452731490
     0.642444491         0.994536996         0.952731490
     0.146103993         0.015593500         0.109605499
     0.146103993         0.015593500         0.609605491
     0.146103993         0.515593529         0.109605499
     0.146103993         0.515593529         0.609605491
     0.646103978         0.015593500         0.109605499
     0.646103978         0.015593500         0.609605491
     0.646103978         0.515593529         0.109605499
     0.646103978         0.515593529         0.609605491
     0.147830501         0.265428990         0.450628996
     0.147830501         0.265428990         0.950628996
     0.147830501         0.765429020         0.450628996
     0.147830501         0.765429020         0.950628996
     0.647830486         0.265428990         0.450628996
     0.647830486         0.265428990         0.950628996
     0.647830486         0.765429020         0.450628996
     0.647830486         0.765429020         0.950628996
     0.242440000         0.400261015         0.187561497
     0.242440000         0.400261015         0.687561512
     0.242440000         0.900261045         0.187561497
     0.242440000         0.900261045         0.687561512
     0.742439985         0.400261015         0.187561497
     0.742439985         0.400261015         0.687561512
     0.742439985         0.900261045         0.187561497
     0.742439985         0.900261045         0.687561512
     0.243466496         0.155079499         0.029699501
     0.243466496         0.155079499         0.529699504
     0.243466496         0.655079484         0.029699501
     0.243466496         0.655079484         0.529699504
     0.743466496         0.155079499         0.029699501
     0.743466496         0.155079499         0.529699504
     0.743466496         0.655079484         0.029699501
     0.743466496         0.655079484         0.529699504
     0.246236995         0.396326989         0.351504505
     0.246236995         0.396326989         0.851504505
     0.246236995         0.896327019         0.351504505
     0.246236995         0.896327019         0.851504505
     0.746236980         0.396326989         0.351504505
     0.746236980         0.396326989         0.851504505
     0.746236980         0.896327019         0.351504505
     0.746236980         0.896327019         0.851504505
     0.247765496         0.347421497         0.048578002
     0.247765496         0.347421497         0.548578024
     0.247765496         0.847421527         0.048578002
     0.247765496         0.847421527         0.548578024
     0.747765481         0.347421497         0.048578002
     0.747765481         0.347421497         0.548578024
     0.747765481         0.847421527         0.048578002
     0.747765481         0.847421527         0.548578024
     0.247887000         0.089379497         0.211222500
     0.247887000         0.089379497         0.711222529
     0.247887000         0.589379489         0.211222500
     0.247887000         0.589379489         0.711222529
     0.747887015         0.089379497         0.211222500
     0.747887015         0.089379497         0.711222529
     0.747887015         0.589379489         0.211222500
     0.747887015         0.589379489         0.711222529
     0.258730501         0.100493997         0.360740006
     0.258730501         0.100493997         0.860740006
     0.258730501         0.600494027         0.360740006
     0.258730501         0.600494027         0.860740006
     0.758730531         0.100493997         0.360740006
     0.758730531         0.100493997         0.860740006
     0.758730531         0.600494027         0.360740006
     0.758730531         0.600494027         0.860740006
     0.342128485         0.265161991         0.449842513
     0.342128485         0.265161991         0.949842513
     0.342128485         0.765161991         0.449842513
     0.342128485         0.765161991         0.949842513
     0.842128515         0.265161991         0.449842513
     0.842128515         0.265161991         0.949842513
     0.842128515         0.765161991         0.449842513
     0.842128515         0.765161991         0.949842513
     0.342938006         0.007968000         0.110702001
     0.342938006         0.007968000         0.610701978
     0.342938006         0.507968009         0.110702001
     0.342938006         0.507968009         0.610701978
     0.842938006         0.007968000         0.110702001
     0.842938006         0.007968000         0.610701978
     0.842938006         0.507968009         0.110702001
     0.842938006         0.507968009         0.610701978
     0.356877506         0.499501497         0.460772991
     0.356877506         0.499501497         0.960772991
     0.356877506         0.999501467         0.460772991
     0.356877506         0.999501467         0.960772991
     0.856877506         0.499501497         0.460772991
     0.856877506         0.499501497         0.960772991
     0.856877506         0.999501467         0.460772991
     0.856877506         0.999501467         0.960772991
     0.389625996         0.233089507         0.136610001
     0.389625996         0.233089507         0.636610031
     0.389625996         0.733089507         0.136610001
     0.389625996         0.733089507         0.636610031
     0.889626026         0.233089507         0.136610001
     0.889626026         0.233089507         0.636610031
     0.889626026         0.733089507         0.136610001
     0.889626026         0.733089507         0.636610031
     0.400821507         0.472912997         0.294960499
     0.400821507         0.472912997         0.794960499
     0.400821507         0.972913027         0.294960499
     0.400821507         0.972913027         0.794960499
     0.900821507         0.472912997         0.294960499
     0.900821507         0.472912997         0.794960499
     0.900821507         0.972913027         0.294960499
     0.900821507         0.972913027         0.794960499
     0.407521993         0.245505005         0.294779986
     0.407521993         0.245505005         0.794780016
     0.407521993         0.745504975         0.294779986
     0.407521993         0.745504975         0.794780016
     0.907521963         0.245505005         0.294779986
     0.907521963         0.245505005         0.794780016
     0.907521963         0.745504975         0.294779986
     0.907521963         0.745504975         0.794780016
     0.494347006         0.088218004         0.221921504
     0.494347006         0.088218004         0.721921504
     0.494347006         0.588217974         0.221921504
     0.494347006         0.588217974         0.721921504
     0.994346976         0.088218004         0.221921504
     0.994346976         0.088218004         0.721921504
     0.994346976         0.588217974         0.221921504
     0.994346976         0.588217974         0.721921504
     0.496547490         0.331568003         0.393809497
     0.496547490         0.331568003         0.893809497
     0.496547490         0.831568003         0.393809497
     0.496547490         0.831568003         0.893809497
     0.996547461         0.331568003         0.393809497
     0.996547461         0.331568003         0.893809497
     0.996547461         0.831568003         0.393809497
     0.996547461         0.831568003         0.893809497
