Ge16Li160P32S192 E=-1731.083547 eV
 1.0000000000000000
    17.1799011230000005    0.0000000000000000    0.0000000000000000
    -0.0772093229000000   17.7589130484999984    0.0000000000000000
    -0.2910353661000000   -0.8997439501000000   25.9326886224000006
 Li  Ge  P   S  
 160  16  32 192
Cartesian
  1.7077080538927425  6.9260879302085421  9.7197300554862451
  1.5621908338374733  6.4762152109756865 22.6860731301114775
  1.6691044476382475 15.8055439754992371  9.7197301021874605
  1.5235865438887297 15.3556725119316155 22.6860736924710977
 10.2976591590390267  6.9260871953896990  9.7197300441110741
 10.1521411107020469  6.4762156274763818 22.6860738931817565
 10.2590547702430381 15.8055433724048502  9.7197294295575194
 10.1135366161513893 15.3556721545909856 22.6860733695991890
  1.7349135374007314  1.8537753956106111 11.9613897999195231
  1.5893944692138069  1.4039023306025278 24.9277334637239463
  1.6963079065369382 10.7332320005706787 11.9613890573627337
  1.5507905239487170 10.2833596363116957 24.9277333866489599
 10.3248629517007586  1.8537750923817067 11.9613881400745310
 10.1793457494894710  1.4039031450287520 24.9277328336165631
 10.2862577640112729 10.7332310751119149 11.9613883010095030
 10.1407398716295560 10.2833596445122168 24.9277330096810843
  1.9102752039729340  6.5880055005580305  3.2624169126459610
  1.7647572029089957  6.1381333694455371 16.2287604062872326
  1.8716710013423112 15.4674613011998812  3.2624169356759003
  1.7261536421378039 15.0175892006539797 16.2287606404868185
 10.5002266691506030  6.5880044619406668  3.2624163145029534
 10.3547084021025686  6.1381324671400890 16.2287600152758777
 10.4616222787666793 15.4674611576215835  3.2624166032358692
 10.3161043677593263 15.0175887037809499 16.2287599653755237
  1.9432241206840823  1.8573817204471643  4.7140416442758690
  1.7977056615170766  1.4075087285199512 17.6803848277993936
  1.9046204020457997 10.7368383768052187  4.7140418960911790
  1.7591011659295295 10.2869647465244807 17.6803847351197625
 10.5331755363648956  1.8573816083952384  4.7140412568953716
 10.3876569641611258  1.4075088998013341 17.6803848817238816
 10.4945698449856604 10.7368377361695195  4.7140413555926646
 10.3490516842038645 10.2869653275902095 17.6803844051267234
  1.9784891275597050  1.6292195270262078  8.4956333726136997
  1.8329707991978041  1.1793480237073113 21.4619778545206188
  1.9398840607925270 10.5086760210584238  8.4956333780245270
  1.7943657668004571 10.0588038658917363 21.4619771456803967
 10.5684391929684374  1.6292194208772179  8.4956332060500888
 10.4229213244437400  1.1793476136625340 21.4619768249544194
 10.5298342526344211 10.5086759222715127  8.4956337279631455
 10.3843165984550900 10.0588041232759036 21.4619767648086466
  2.0313961000784166  6.2275609059525445  6.3545849114841619
  1.8858784783258116  5.7776884335755945 19.3209285185324582
  1.9927918065497514 15.1070174355888955  6.3545848495747057
  1.8472738387012928 14.6571459397451012 19.3209286427188935
 10.6213465958440736  6.2275608230593029  6.3545845586780079
 10.4758295255624123  5.7776889585794207 19.3209279387696071
 10.5827426474226041 15.1070172932281075  6.3545848541537104
 10.4372246233765029 14.6571456430207228 19.3209282349604514
  2.0560893525251061  6.7243616780750335  0.0318126743194933
  1.9105719693672527  6.2744904810791589 12.9981569579711849
  2.0174849091188669 15.6038189451696123  0.0318127571271021
  1.8719667246190244 15.1539475814163325 12.9981578202550363
 10.6460401413212349  6.7243628587206201  0.0318130822971273
 10.5005226279426438  6.2744910313725173 12.9981573735598328
 10.6074351859577352 15.6038188820429102  0.0318131447621472
 10.4619178777023940 15.1539466477839539 12.9981565168931432
  2.1630712860530910  2.4719705748253826  2.0343670570580468
  2.0175534805876887  2.0220985147109358 15.0007113989766694
  2.1244669080392162 11.3514280264129344  2.0343674299448060
  1.9789494799945555 10.9015555048533237 15.0007104080730844
 10.7530222206698838  2.4719709252554791  2.0343672440577003
 10.6075038947664151  2.0220990124323630 15.0007108694370341
 10.7144166211083949 11.3514276836402015  2.0343667353305666
 10.5688999149633318 10.9015550168626678 15.0007106131687120
  3.8800550929343545  4.3052756337378959  9.7705209081848334
  3.7345369481971527  3.8554030961748449 22.7368645546713140
  3.8414504848356130 13.1847314068835910  9.7705210911821627
  3.6959322216447337 12.7348601346533581 22.7368648549268570
 12.4700058005141940  4.3052754780341269  9.7705215927868263
 12.3244875592606071  3.8554030384324132 22.7368647699865640
 12.4314007541806983 13.1847314816328058  9.7705204848309091
 12.2858837449062275 12.7348598735892224 22.7368651827183683
  4.1923264618557186  8.8022167469231718  0.6423525399950927
  4.0468085013004869  8.3523447704613272 13.6086962204697244
  4.1537215373674252 17.6816737114783749  0.6423522866394483
  4.0082045658420657 17.2318021204171323 13.6086959274881334
 12.7822767289896237  8.8022179430564886  0.6423524106137536
 12.6367593096428426  8.3523442777176857 13.6086960703637256
 12.7436720347499595 17.6816726144684964  0.6423524028824485
 12.5981549641925650 17.2318017591263484 13.6086961523772612
  4.2936402278230590  8.3652297397685604  7.1210437122796986
  4.1481215821543396  7.9153579358257788 20.0873870946147761
  4.2550350714652909 17.2446861012540005  7.1210436787958695
  4.1095171328789517 16.7948154164403753 20.0873874470135938
 12.8835904928709457  8.3652297821692141  7.1210441409330558
 12.7380722695673967  7.9153592251101541 20.0873879072780142
 12.8449850382723678 17.2446871133329935  7.1210438154282851
 12.6994677648462488 16.7948148189297228 20.0873880703153134
  6.1397179416758618  1.8678089662688597 11.1584249218708589
  5.9941997975573695  1.4179369424484765 24.1247682702349664
  6.1011126521972621 10.7472658972496689 11.1584252643466595
  5.9555947246224017 10.2973943656771034 24.1247697642591632
 14.7296678741482729  1.8678091286536633 11.1584251825739091
 14.5841504207137920  1.4179372813576425 24.1247694152139616
 14.6910624474399949 10.7472663747600965 11.1584262250867265
 14.5455465616676101 10.2973935916343837 24.1247682237800447
  6.3164761627692050  2.2875188556660113  1.7267587198991934
  6.1709583400835912  1.8376474610349129 14.6931025897700351
  6.2778715648084500 11.1669760390276895  1.7267590065030398
  6.1323534674688940 10.7171036112403684 14.6931023376010153
 14.9064267898791751  2.2875188269642397  1.7267587673258114
 14.7609092872339769  1.8376472282978000 14.6931029447774293
 14.8678221166001219 11.1669758818002709  1.7267584320027101
 14.7223043831297034 10.7171041777632485 14.6931027246840529
  6.3643571521714062  6.5236140847640165  3.7597282896504698
  6.2188395337752391  6.0737420758337146 16.7260722095287591
  6.3257531795917084 15.4030714272442033  3.7597277443347745
  6.1802351802914064 14.9531988784105767 16.7260720729012888
 14.9543078482107585  6.5236140142972916  3.7597279511771990
 14.8087902618370215  6.0737422248815545 16.7260719606724209
 14.9157031671892479 15.4030710349570761  3.7597286817069313
 14.7701856032334753 14.9531989628638460 16.7260722459426248
  6.3683279480671571  6.7303280849457572  0.1324096373977601
  6.2228102370648370  6.2804563711380448 13.0987537407096308
  6.3297234038047083 15.6097853016325772  0.1324106890349353
  6.1842060935037733 15.1599131264168818 13.0987543729321416
 14.9582788250686658  6.7303284365998479  0.1324102194691037
 14.8127611250147453  6.2804564393420899 13.0987543429417261
 14.9196736123337281 15.6097846322608440  0.1324104917159782
 14.7741566234097661 15.1599128144442670 13.0987547881675486
  6.4144992118641877  1.7989518683175774  4.5337877957152548
  6.2689812148151756  1.3490799743394306 17.5001319509487985
  6.3758953190315166 10.6784086770557956  4.5337888101406714
  6.2303764139624054 10.2285365526407066 17.5001317754340029
 15.0044503066830988  1.7989518938774669  4.5337880275845261
 14.8589310694020433  1.3490797693784558 17.5001317320008027
 14.9658452977006586 10.6784083860862999  4.5337883573680422
 14.8203272428746118 10.2285363658038122 17.5001322467589162
  6.4585153717803392  6.1920950410250057  8.8774519784463735
  6.3129978558558877  5.7422233352738257 21.8437955524243250
  6.4199114085513127 15.0715526445920496  8.8774518124754298
  6.2743933096066735 14.6216804438101011 21.8437955790805027
 15.0484662623493364  6.1920956452793767  8.8774514011850538
 14.9029480740734801  5.7422229960414475 21.8437959670003536
 15.0098613053683181 15.0715520064128157  8.8774513996859863
 14.8643440038767487 14.6216801649318402 21.8437964269184022
  6.6187220753771614  1.6509062483528014  8.1826085689743753
  6.4732046466503848  1.2010341075719813 21.1489528213400142
  6.5801175743466347 10.5303626192291784  8.1826086923469674
  6.4345998142370560 10.0804909859468506 21.1489528927879888
 15.2086729676663737  1.6509064296538896  8.1826091711410616
 15.0631546707654511  1.2010338382943744 21.1489539446160357
 15.1700686938532101 10.5303621308142770  8.1826106206689140
 15.0245509878514003 10.0804906042625131 21.1489515850717993
  8.2690304656832261  4.3423620851179212  5.5370355444073844
  8.1235133530865706  3.8924897662853288 18.5033792573463316
  8.2304261001497245 13.2218188467600886  5.5370365166190449
  8.0849086149680591 12.7719459521783882 18.5033801516887628
 16.8589815909060619  4.3423617032412407  5.5370357597573072
 16.7134635162324123  3.8924894957701586 18.5033801990336997
 16.8203767257612782 13.2218175865329464  5.5370366345393034
 16.6748588717408701 12.7719462297944002 18.5033801582122344
  8.3180945360425635  4.1511643861685998 12.3262706791409755
  8.1725768969630401  3.7012917005130990 25.2926136836792530
  8.2794894255463554 13.0306208583420808 12.3262706335605401
  8.1339717720553075 12.5807498571185938 25.2926141532183770
 16.9080451409505308  4.1511649698386694 12.3262713252403397
 16.7625272735269064  3.7012919222373459 25.2926144175003138
 16.8694401241048375 13.0306210313618234 12.3262703326285639
 16.7239230301912833 12.5807489788262128 25.2926148124022845
  4.2119757111742819  8.4101249013691248 10.5633395300813842
  4.0664580885744543  7.9602527866770476 23.5296832368920938
  4.1733721500252470 17.2895804859596893 10.5633396239872255
  4.0278532829366913 16.8397091855017464 23.5296829469115529
 12.8019261629241861  8.4101240266922499 10.5633395039097451
 12.6564091321780161  7.9602527173610591 23.5296846626887231
 12.7633227993845875 17.2895810684040043 10.5633394865974815
 12.6178030430616488 16.8397079471428839 23.5296828553813384
  8.5092877356028840  4.2485116059456711  2.3642174793089832
  8.3637683307065611  3.7986398477393895 15.3305606167722654
  8.4706826055108397 13.1279680921587598  2.3642174330011789
  8.3251639353592033 12.6780954074420009 15.3305599107526191
 17.0992381426956896  4.2485116219281744  2.3642172660716478
 16.9537196266376107  3.7986392141793743 15.3305611473830350
 17.0606348734787083 13.1279683031881316  2.3642171696044993
 16.9151135520487408 12.6780960779008822 15.3305617888115560
 -0.0541511849972864  3.9983524220563673  8.8837185290237421
 -0.1996697661824825  3.5484815196703039 21.8500624401939199
 -0.0927566085415079 12.8778090192685184  8.8837191818827161
 -0.2382745696585762 12.4279362372183257 21.8500618494195820
  8.5357984439470247  3.9983526505196916  8.8837174518938777
  8.3902803929892311  3.5484809811835114 21.8500642366218329
  8.4971937827748167 12.8778101356463921  8.8837189066782702
  8.3516764578799307 12.4279372142234763 21.8500636690175227
  4.1564909431361912 -0.0683338114007752  4.0118518567723660
  4.0109735048401749 -0.5182059059909235 16.9781963035357855
  4.1178863059978470  8.8111231339362401  4.0118519726522770
  3.9723680298770860  8.3612509223338680 16.9781956559128879
 12.7464414415271889 -0.0683343005423776  4.0118518299427821
 12.6009245940378012 -0.5182046218859097 16.9781956414414772
 12.7078371994661516  8.8111230416989681  4.0118510830204803
 12.5623188757115098  8.3612503098695221 16.9781952020807267
  4.0385803024346627  4.1084315866849712 12.8817653637176370
  3.8930611240039514  3.6585583615296424 25.8481112199807903
  3.9999749980294057 12.9878893617463209 12.8817657682334854
  3.8544572238791601 12.5380154522260483 25.8481075145692749
 12.6285299034757124  4.1084312376619110 12.8817659320825033
 12.4830117502461295  3.6585588148528165 25.8481091385150101
 12.5899250323459384 12.9878877830810531 12.8817656801225695
 12.4444084384726530 12.5380149773734235 25.8481104507916086
  8.4407381223832818  8.3800679223013503  6.4840673832779121
  8.2952205211014487  7.9301954199626383 19.4504085865247660
  8.4021348062685508 17.2595246013177750  6.4840670524626836
  8.2566167334063358 16.8096515214840743 19.4504093544336669
 17.0306887853848536  8.3800684732520292  6.4840670106406586
 16.8851715128624598  7.9301952824286612 19.4504082729414201
 16.9920848752744931 17.2595240129060272  6.4840674651092858
 16.8465654027531784 16.8096529631859610 19.4504092970602827
 -0.0387571523895957  6.2381513079704884  1.3241421265640145
 -0.1842745345143228  5.7882797467346023 14.2904869541832795
 -0.0773613519641508 15.1176080968407796  1.3241420093042227
 -0.2228787613169015 14.6677366771881736 14.2904871037490526
  8.5511932967453905  6.2381522008506600  1.3241422694281517
  8.4056763511496548  5.7882800596041513 14.2904870597661446
  8.5125888915824266 15.1176083887786206  1.3241422931120723
  8.3670716293552676 14.6677356933730429 14.2904879840258960
 -0.1092356035492269  2.1817188093928936  9.8841021151604824
 -0.2547543876697642  1.7318464106319009 22.8504465422888323
 -0.1478406904090073 11.0611758195725844  9.8841026622185773
 -0.2933581429181972 10.6113049364903222 22.8504453729187382
  8.4807146325143012  2.1817185112255175  9.8841019943005879
  8.3351967448922863  1.7318465179738876 22.8504457523992919
  8.4421098850397964 11.0611741536281087  9.8841028228685488
  8.2965917555586444 10.6113043337420283 22.8504462537041064
 -0.0125288667451520  6.8546784133427057  5.0893353250636366
 -0.1580467547524618  6.4048070453222445 18.0556795708172970
 -0.0511334334930111 15.7341348902134932  5.0893352977054507
 -0.1966506360938874 15.2842619429136342 18.0556794080470162
  8.5774211998080236  6.8546778278184188  5.0893345016958715
  8.4319035136260823  6.4048072091872985 18.0556807074539662
  8.5388166190359662 15.7341336948723729  5.0893346138683686
  8.3932991731087689 15.2842630183452144 18.0556790245960492
  0.0085547470040003  2.5858908605814643  0.8446917773611141
 -0.1369623899666259  2.1360191187264546 13.8110359247886638
 -0.0300492640253750 11.4653471545649115  0.8446917780580014
 -0.1755672823002404 11.0154754703125057 13.8110359915681684
  8.5985060498828911  2.5858902966242781  0.8446918821481892
  8.4529882675015049  2.1360194469077904 13.8110358209267012
  8.5599005296431550 11.4653478107070974  0.8446915767326043
  8.4143832872225293 11.0154758299396516 13.8110367960225453
  1.5714879686434495  8.2266291046182598  7.6273368818002609
  1.4259712514306648  7.7767562386053992 20.5936822411425950
  1.5328836025518260 17.1060850059883975  7.6273373533876496
  1.3873661251843161 16.6562132796705207 20.5936819132445095
 10.1614390708579574  8.2266288447535043  7.6273382000820780
 10.0159206711997673  7.7767572658405646 20.5936812444067243
 10.1228339873701056 17.1060858431553555  7.6273372990315211
  9.9773166598806693 16.6562135067249955 20.5936813512296979
  1.6649443044557770  4.1071085445646931  3.7584598172584314
  1.5194266929818969  3.6572365308439889 16.7248047354237990
  1.6263393276966682 12.9865652494519388  3.7584599055701000
  1.4808218577786370 12.5366929912651877 16.7248033640218736
 10.2548949302636938  4.1071085410556085  3.7584596206923591
 10.1093774202776121  3.6572365139886251 16.7248040280300039
 10.2162902841693484 12.9865648191597725  3.7584603305506841
 10.0707733052806905 12.5366921285819455 16.7248039465981648
  1.7104172402413815  4.0622144896734218  7.8063872069221674
  1.5648990375907599  3.6123418150258031 20.7727318475970755
  1.6718130120967889 12.9416707714201458  7.8063881376618562
  1.5262942594719857 12.4917981866535559 20.7727319639161649
 10.3003684503898416  4.0622137994548329  7.8063867152713318
 10.1548509516319676  3.6123422726214733 20.7727305255757884
 10.2617636981174574 12.9416700978152583  7.8063877453320476
 10.1162449098877403 12.4917981213922360 20.7727311055891413
  2.2662161132272587  8.3538937799223074 11.7078290672765082
  2.1206985955614082  7.9040208940578305 24.6741728384187837
  2.2276124538141837 17.2333499014319429 11.7078285824508814
  2.0820944642594754 16.7834779490692654 24.6741727465566498
 10.8561662792557954  8.3538934478881686 11.7078293923755634
 10.7106492709654848  7.9040216171847613 24.6741729130541465
 10.8175618923190591 17.2333502898153341 11.7078288789847296
 10.6720443483249703 16.7834776083132944 24.6741731029129880
  2.4868374986758783  0.1560136061149664  2.8237230435625951
  2.3413188030705299 -0.2938584199650016 15.7900657972737974
  2.4482331543006950  9.0354711212463261  2.8237236421883289
  2.3027149127858073  8.5855980973233308 15.7900664327174152
 11.0767881971265520  0.1560138005573475  2.8237222479352861
 10.9312705363098477 -0.2938589026633158 15.7900670109608168
 11.0381831177091208  9.0354699339486935  2.8237221906926115
 10.8926660103146133  8.5855975033881897 15.7900662754213990
  2.3742979457287232  4.2648818546658713 11.6697241365914408
  2.2287797374073359  3.8150088951984862 24.6360662302692610
  2.3356936189821034 13.1443382553788020 11.6697242420550999
  2.1901766944112016 12.6944663557086947 24.6360681562976964
 10.9642480443177881  4.2648815442335559 11.6697233003509702
 10.8187307676098925  3.8150101199351476 24.6360674952644310
 10.9256432957871930 13.1443391928998352 11.6697230893121802
 10.7801257505480077 12.6944664168716148 24.6360664627351440
  4.0880831919624274  6.9415218534912935  4.8751379459656841
  3.9425654158422208  6.4916491492928126 17.8414817605266798
  4.0494788088875548 15.8209780878056350  4.8751381290393132
  3.9039609198884380 15.3711055678383737 17.8414816739786986
 12.6780334341421561  6.9415206662623188  4.8751379633910945
 12.5325164442680972  6.4916494288485325 17.8414812914265859
 12.6394291850266214 15.8209776387931349  4.8751378806943109
 12.4939115923477857 15.3711056787846942 17.8414815602686154
  4.1396149804118947  2.7095697629156037  0.7868963879034269
  3.9940969866999132  2.2596983748012156 13.7532406441270734
  4.1010113579090692 11.5890256839499663  0.7868964818770002
  3.9554928791852890 11.1391536990429980 13.7532405993974347
 12.7295656951538767  2.7095696386138761  0.7868972150294289
 12.5840477686474586  2.2596977198306667 13.7532417431195508
 12.6909607235793445 11.5890274224600258  0.7868975466511697
 12.5454439572387830 11.1391535453500268 13.7532400128009495
  4.1114313317994604  6.7171900486993108  9.0854103005654103
  3.9659136613560002  6.2673175973259108 22.0517537999509159
  4.0728266489039848 15.5966472769394020  9.0854099025332129
  3.9273088698890479 15.1467746596276243 22.0517543837667596
 12.7013828161020825  6.7171904120139319  9.0854102244267505
 12.5558636053037898  6.2673173487164959 22.0517543454704601
 12.6627777175312133 15.5966461684505049  9.0854094879134877
 12.5172600253934352 15.1467749644363412 22.0517539685830819
  4.1747224417097035  6.1112334429712369  1.2541422145984422
  4.0292040492153856  5.6613612851210213 14.2204868420645738
  4.1361169678579675 14.9906911227646322  1.2541440586204364
  3.9906002403738796 14.5408175805815887 14.2204872811527618
 12.7646731650838809  6.1112335947019716  1.2541437467134982
 12.6191550068362766  5.6613616472679755 14.2204875783419276
 12.7260678716672970 14.9906892449396256  1.2541419244822967
 12.5805500264688170 14.5408183560526822 14.2204882361825522
  4.2025423108738318  1.4034522877870870  5.4487742238164909
  4.0570237406454606  0.9535796565944360 18.4151177568461151
  4.1639383000040411 10.2829083549200337  5.4487752589852851
  4.0184192423787968  9.8330358126897170 18.4151181898523397
 12.7924928111384233  1.4034517116969685  5.4487744515418450
 12.6469750632273552  0.9535795027091440 18.4151183240310310
 12.7538877395038046 10.2829092399613344  5.4487746624036646
 12.6083691250692755  9.8330362073842839 18.4151175913104979
  4.3425931817771035  1.4448670589589718  9.3570208738416891
  4.1970758766303753  0.9949947120014023 22.3233654242024500
  4.3039887140500639 10.3243236951858037  9.3570215666626027
  4.1584710649011596  9.8744510364928377 22.3233659706118281
 12.9325440974495951  1.4448668071862891  9.3570212529194396
 12.7870259564994324  0.9949954685708940 22.3233643298428497
 12.8939396009569514 10.3243235883346003  9.3570212488529059
 12.7484217974210292  9.8744515456831419 22.3233641205603917
  5.7042218710563883  4.2833344334560097 11.6752795489291490
  5.5587057956542489  3.8334621695492492 24.6416227202711298
  5.6656179814758820 13.1627912201067545 11.6752795666762470
  5.5201001485782051 12.7129193054297893 24.6416236023454758
 14.2941737577022092  4.2833341277069747 11.6752796447066007
 14.1486562372471329  3.8334625456456455 24.6416236380894631
 14.2555690512061108 13.1627909125197657 11.6752787915373233
 14.1100507763195928 12.7129185633799811 24.6416240293495292
  5.8693951575760108  0.0236945244062137  2.8578208506047251
  5.7238790181010213 -0.4261775588289222 15.8241647763539373
  5.8307908249775000  8.9031516851182371  2.8578219205773081
  5.6852732652683260  8.4532791509502019 15.8241649505031461
 14.4593468872835622  0.0236949124420615  2.8578210941932198
 14.3138281329267816 -0.4261779419668613 15.8241656875100727
 14.4207420180330637  8.9031515057595119  2.8578213781065265
 14.2752236955987080  8.4532791785211554 15.8241654810986674
  5.9397523208331915  8.4245196153037440 11.9509576404623683
  5.7942339159584622  7.9746476483932209 24.9173018164005313
  5.9011477841988871 17.3039763440442904 11.9509578989165632
  5.7556292308250097 16.8541042552072078 24.9173010664590535
 14.5297037377855904  8.4245187081802211 11.9509584314833628
 14.3841848309354905  7.9746471158079117 24.9173013992846997
 14.4910975229140746 17.3039757907908189 11.9509576245960591
 14.3455808035077954 16.8541046058101607 24.9173026109238585
  6.6410665998162566  4.0283447104494341  3.5517885223045815
  6.4955490918521406  3.5784722367633215 16.5181319863724489
  6.6024625570256594 12.9078013604232460  3.5517881225172014
  6.4569461011445606 12.4579288202591982 16.5181323159473301
 15.2310179051835686  4.0283443257850049  3.5517881161814686
 15.0855006907469207  3.5784720498440943 16.5181327358697985
 15.1924131851442006 12.9078008906754089  3.5517889552050401
 15.0468962122184617 12.4579295702048700 16.5181321820009899
  6.7803373190943681  8.1936337150264507  7.6396826598828431
  6.6348202107624532  7.7437620851377442 20.6060255078428511
  6.7417325403040103 17.0730903113302688  7.6396821787185472
  6.5962144019987630 16.6232182823491037 20.6060264424062716
 15.3702882341256934  8.1936340270214369  7.6396813695717256
 15.2247699034084985  7.7437616303861390 20.6060258217282346
 15.3316822540925823 17.0730904072355258  7.6396823861032717
 15.1861645498575850 16.6232179821785593 20.6060264403718527
  6.8975106859028994  4.0924353667710083  7.6378016719524355
  6.7519925689420814  3.6425633341653918 20.6041451920203968
  6.8589049882181756 12.9718921202722086  7.6378009248708656
  6.7133879562103322 12.5220203224302580 20.6041457611619592
 15.4874609445981122  4.0924359362485978  7.6378011021676961
 15.3419438784817643  3.6425638266830984 20.6041464425759884
 15.4488569474432857 12.9718917963031704  7.6378024515426723
 15.3033390197707018 12.5220205904497952 20.6041465652071913
  8.4424149499520400  1.3649491748400777  5.6526095882050242
  8.2968970096559698  0.9150766301657117 18.6189540130781523
  8.4038107662569654 10.2444057797412817  5.6526114298957264
  8.2582920076677766  9.7945319327581952 18.6189549930763754
 17.0323652968578436  1.3649493627027196  5.6526105549196393
 16.8868479004511620  0.9150771093045816 18.6189541956899518
 16.9937606886461481 10.2444048336450919  5.6526110061002015
 16.8482427057837931  9.7945323029680740 18.6189543816412844
  8.3741998975059921  5.5611531122605671 10.2104789952124850
  8.2286812258671436  5.1112813662827010 23.1768226725000694
  8.3355945436708332 14.4406102424004992 10.2104798108546611
  8.1900771514868698 13.9907379268098655 23.1768234921787020
 16.9641500894677719  5.5611536209895824 10.2104790821733413
 16.8186312683902344  5.1112807073956690 23.1768226413136560
 16.9255449894248287 14.4406098234059179 10.2104786483598229
 16.7800271395535177 13.9907377438599951 23.1768226496846239
